c read Graph
c width = 563
c time = 1457 ms
c width = 35
c time = 2653 ms
c width = 33
c time = 3557 ms
c width = 32
c time = 8939 ms
c width = 31
c time = 9255 ms
c width = 30
c time = 17618 ms
c width = 29
c time = 22260 ms
c width = 28
c time = 35642 ms
c width = 27
c time = 41867 ms
c width = 26
c time = 54406 ms
c width = 25
c time = 73619 ms
c width = 24
c time = 89593 ms
c width = 24
c time = 89663 ms
s td 502 25 576
b 1 1 2 25
b 2 2 3 25 26
b 3 22 23 47 48
b 4 3 25 26 49
b 5 22 47 48 72
b 6 505 529 530 554
b 7 528 551 552 575
b 8 505 530 554 555
b 9 528 551 574 575
b 10 3 4 5 28
b 11 3 5 27 28 50 73
b 12 5 27 28 50 52 73 75
b 13 5 28 50 52 73 75 98
b 14 5 28 52 73 75 98 121
b 15 5 28 30 52 53 75 98 121
b 16 5 30 52 53 75 77 98 100 121
b 17 5 30 53 75 77 98 100 121 123
b 18 5 30 53 77 98 100 121 123 146
b 19 5 30 53 55 77 78 100 121 123 146
b 20 5 30 55 77 78 100 103 121 123 127 146 148 150 173
b 21 5 30 55 78 80 103 121 123 127 146 148 150 173
b 22 55 78 79 80 103
b 23 5 9 30 34 55 57 80 103 121 123 127 146 148 150 173
b 24 5 9 30 32 34 55 57 80
b 25 32 55 56 57 80
b 26 9 32 33 34 57
b 27 5 7 9 30 32 55
b 28 7 30 31 32 55
b 29 7 8 9 32
b 30 5 6 7 30
b 31 9 34 57 80 103 121 123 127 146 148 150 173 196 217 219 242
b 32 121 123 146 148 171 173 196 217 219 242
b 33 123 146 147 148 171
b 34 148 171 172 173 196
b 35 121 146 171 194 196 217 219 242
b 36 171 194 195 196 219
b 37 194 217 218 219 242
b 38 121 146 169 171 194 217
b 39 169 193 194 217
b 40 146 169 170 171 194
b 41 121 145 146 169
b 42 9 34 57 59 80 84 103 109 127 132 150 152 153 155 173 178 196 217 219 242
b 43 34 57 59 80 84 103 109 127 130 132 152 153 155 178
b 44 130 153 154 155 178
b 45 34 57 59 80 84 103 105 109 127 130 132 152 153 155
b 46 34 57 59 80 84 105 107 109 130 132 155
b 47 84 107 108 109 132
b 48 107 130 131 132 155
b 49 34 57 59 80 82 84 105 107 130
b 50 59 82 83 84 107
b 51 57 80 81 82 105
b 52 82 105 106 107 130
b 53 34 57 58 59 82
b 54 80 103 105 127 128 130 152 153
b 55 80 103 104 105 128
b 56 105 128 129 130 153
b 57 9 34 59 84 109 127 132 150 152 153 155 173 175 178 196 217 219 242
b 58 127 150 151 152 175
b 59 9 34 59 84 109 132 150 152 153 155 173 175 178 196 198 217 219 242
b 60 150 173 174 175 198
b 61 9 34 59 84 109 132 152 153 155 173 175 178 196 198 217 219 221 242
b 62 173 196 197 198 221
b 63 9 34 59 84 109 132 152 153 155 175 178 196 198 217 219 221 242 244
b 64 9 34 59 84 109 132 152 153 155 175 178 198 217 219 221 242 244 267
b 65 9 34 59 84 109 132 152 153 155 175 178 198 202 217 221 225 242 244 246 248 267 271
b 66 9 34 59 84 109 132 155 178 202 217 221 225 242 244 246 248 267 269 271
b 67 9 34 59 84 109 132 155 178 202 217 225 242 244 246 248 267 269 271 292
b 68 9 34 59 84 109 132 155 178 202 217 225 242 246 248 267 269 271 292 313 315 338
b 69 9 34 59 84 109 132 155 178 202 225 246 248 269 271 292 296 313 315 319 338 342 363 365 388
b 70 246 248 269 271 292 296 313 315 319 338 342 363 365 388
b 71 246 269 271 292 296 315 317 319 338 342 363 365 388
b 72 292 315 317 338 340 342 363 365 388
b 73 315 338 339 340 363
b 74 340 363 364 365 388
b 75 317 340 341 342 365
b 76 292 315 316 317 340
b 77 246 269 271 292 294 296 317 319 342
b 78 271 294 295 296 319
b 79 294 317 318 319 342
b 80 246 269 270 271 294
b 81 269 292 293 294 317
b 82 9 34 59 84 109 132 155 178 202 225 248 271 273 296 313 319 338 342 363 365 388
b 83 248 271 272 273 296
b 84 9 34 59 84 109 132 155 178 202 225 248 250 273 296 313 319 338 342 363 365 388
b 85 225 248 249 250 273
b 86 9 34 59 84 109 132 155 178 202 225 227 250 273 296 313 319 338 342 363 365 388
b 87 9 13 34 38 59 63 84 86 109 132 155 178 202 227 250 273 296 313 319 338 342 363 365 388
b 88 9 13 34 38 59 61 63 84 86 109
b 89 9 13 34 36 38 59 61 84
b 90 9 11 13 34 36 59
b 91 9 10 11 34
b 92 11 12 13 36
b 93 11 34 35 36 59
b 94 13 36 37 38 61
b 95 36 59 60 61 84
b 96 38 61 62 63 86
b 97 61 84 85 86 109
b 98 13 38 63 86 109 132 134 155 159 178 182 202 205 227 228 250 273 296 313 319 338 342 363 365 388
b 99 13 38 63 86 88 109 113 134 136 159 182 205 227 228 250 273 296 313 319 338 342 363 365 388
b 100 13 38 63 88 109 113 134 136 159 182 205 227 228 250 273 296 313 319 338 342 363 365 388
b 101 13 38 63 88 113 134 136 159 182 205 227 228 250 273 296 313 319 338 342 363 365 388
b 102 63 86 88 109 111 113 134 136 159
b 103 111 134 135 136 159
b 104 63 86 87 88 111
b 105 88 111 112 113 136
b 106 86 109 110 111 134
b 107 13 17 38 42 63 67 88 90 113 136 159 182 205 227 228 250 273 296 313 319 338 342 363 365 388
b 108 13 17 38 42 63 65 67 88 90 113
b 109 65 88 89 90 113
b 110 42 65 66 67 90
b 111 13 17 38 40 42 63 65 88
b 112 40 63 64 65 88
b 113 13 15 17 38 40 63
b 114 13 14 15 38
b 115 15 16 17 40
b 116 15 38 39 40 63
b 117 17 40 41 42 65
b 118 17 21 42 44 67 90 113 136 159 182 205 227 228 250 273 296 313 319 338 342 363 365 388
b 119 21 44 67 69 90 94 113 119 136 144 159 182 205 227 228 250 273 296 313 319 338 342 363 365 388
b 120 44 67 69 90 92 94 113 119 136 144 159 182 205 227 228 250 273 296 313 319 338 342 363 365 388
b 121 67 69 90 92 94 113 117 119 136 144 159 182 205 227 228 250 273 296 313 319 338 342 363 365 388
b 122 67 90 92 94 113 117 119 136 142 144 159 182 205 227 228 250 273 296 313 319 338 342 363 365 388
b 123 67 90 92 113 115 117 119 136 142 144 159 182 205 227 228 250 273 296 313 319 338 342 363 365 388
b 124 90 92 113 115 117 119 136 138 142 144 159 182 205 227 228 250 273 296 313 319 338 342 363 365 388
b 125 92 113 115 116 117 119 136 138 142 144 159 182 205 227 228 250 273 296 313 319 338 342 363 365 388
b 126 113 115 116 117 119 136 138 140 142 144 159 182 205 227 228 250 273 296 313 319 338 342 363 365 388
b 127 113 115 117 119 136 138 140 142 144 159 163 182 205 227 228 250 273 296 313 319 338 342 363 365 388
b 128 115 138 139 140 163
b 129 113 117 119 136 138 140 142 144 159 161 163 182 205 227 228 250 273 296 313 319 338 342 363 365 388
b 130 117 119 136 138 140 142 144 159 161 163 165 182 205 227 228 250 273 296 313 319 338 342 363 365 388
b 131 119 136 138 140 142 144 159 161 163 165 182 184 205 227 228 250 273 296 313 319 338 342 363 365 388
b 132 119 138 140 142 144 159 161 163 165 182 184 186 205 227 228 250 273 296 313 319 338 342 363 365 388
b 133 119 140 142 144 159 161 163 165 182 184 186 205 209 227 228 250 273 296 313 319 338 342 363 365 388
b 134 119 140 142 144 159 163 165 182 184 186 188 205 209 227 228 250 273 296 313 319 338 342 363 365 388
b 135 140 163 164 165 188
b 136 119 142 144 159 163 165 182 184 186 188 205 209 211 227 228 250 273 296 313 319 338 342 363 365 388
b 137 163 186 187 188 211
b 138 119 142 144 159 165 182 184 186 188 205 209 211 227 228 234 250 273 296 313 319 338 342 363 365 388
b 139 119 142 144 159 165 167 182 184 188 205 209 211 227 228 234 250 273 296 313 319 338 342 363 365 388
b 140 142 144 159 165 167 182 184 188 190 205 209 211 227 228 234 250 273 296 313 319 338 342 363 365 388
b 141 144 159 165 167 182 184 188 190 192 205 209 211 227 228 234 250 273 296 313 319 338 342 363 365 388
b 142 159 165 167 182 184 188 190 192 205 209 211 215 227 228 234 250 273 296 313 319 338 342 363 365 388
b 143 159 165 182 184 188 190 192 205 209 211 215 227 228 234 240 250 273 296 313 319 338 342 363 365 388
b 144 192 215 216 240
b 145 159 165 182 184 188 190 205 207 209 211 215 227 228 234 240 250 273 296 313 319 338 342 363 365 388
b 146 165 182 184 188 190 205 207 209 211 213 215 227 228 234 240 250 273 296 313 319 338 342 363 365 388
b 147 182 184 188 190 205 207 209 211 213 215 227 228 230 234 240 250 273 296 313 319 338 342 363 365 388
b 148 184 188 190 205 207 209 211 213 215 227 228 230 232 234 240 250 273 296 313 319 338 342 363 365 388
b 149 188 190 205 207 209 211 213 215 227 228 230 232 234 240 250 255 273 296 313 319 338 342 363 365 388
b 150 207 230 231 232 255
b 151 188 190 205 209 211 213 215 227 228 230 232 234 238 240 250 255 273 296 313 319 338 342 363 365 388
b 152 190 213 214 215 238
b 153 188 205 209 211 213 215 227 228 230 232 234 236 238 240 250 255 273 296 313 319 338 342 363 365 388
b 154 205 209 211 213 215 227 228 229 230 232 234 236 238 240 250 255 273 296 313 319 338 342 363 365 388
b 155 209 211 213 215 227 228 229 230 232 234 236 238 240 250 255 257 273 296 313 319 338 342 363 365 388
b 156 211 213 215 227 228 229 230 232 234 236 238 240 250 255 257 259 273 296 313 319 338 342 363 365 388
b 157 213 215 227 228 229 230 232 234 236 238 240 250 255 257 259 261 273 296 313 319 338 342 363 365 388
b 158 215 227 228 229 230 232 234 236 238 240 250 255 257 259 261 263 273 296 313 319 338 342 363 365 388
b 159 227 228 229 230 232 234 236 238 240 250 252 255 257 259 261 263 273 296 313 319 338 342 363 365 388
b 160 227 229 230 232 234 236 238 240 250 252 255 257 259 261 263 273 275 296 313 319 338 342 363 365 388
b 161 229 230 232 234 236 238 240 250 252 253 255 257 259 261 263 273 275 296 313 319 338 342 363 365 388
b 162 230 232 234 236 238 240 250 252 253 255 257 259 261 263 273 275 280 296 313 319 338 342 363 365 388
b 163 230 234 236 238 240 250 252 253 255 257 259 261 263 273 275 280 284 296 313 319 338 342 363 365 388
b 164 230 234 238 240 250 252 253 255 257 259 261 263 273 275 280 284 286 296 313 319 338 342 363 365 388
b 165 230 234 240 250 252 253 255 257 259 261 263 273 275 280 284 286 288 296 313 319 338 342 363 365 388
b 166 230 234 250 252 253 255 257 259 261 263 273 275 280 284 286 288 296 309 313 319 338 342 363 365 388
b 167 230 234 250 252 253 255 257 259 263 273 275 280 284 286 288 296 309 311 313 319 338 342 363 365 388
b 168 230 234 250 252 253 255 257 259 273 275 280 284 286 288 296 309 311 313 319 334 338 342 363 365 388
b 169 230 234 250 252 253 255 257 259 273 275 280 284 288 296 309 311 313 319 334 336 338 342 363 365 388
b 170 288 311 312 336
b 171 230 234 250 252 253 254 255 257 259 273 275 280 284 296 309 311 313 319 334 336 338 342 363 365 388
b 172 234 250 252 253 254 255 257 258 259 273 275 280 284 296 309 311 313 319 334 336 338 342 363 365 388
b 173 250 252 253 254 255 257 258 259 273 275 280 284 296 298 309 311 313 319 334 336 338 342 363 365 388
b 174 252 253 254 255 257 258 259 273 275 277 280 284 296 298 309 311 313 319 334 336 338 342 363 365 388
b 175 252 254 255 257 258 259 273 275 277 280 284 296 298 300 309 311 313 319 334 336 338 342 363 365 388
b 176 254 255 257 258 259 273 275 277 278 280 284 296 298 300 309 311 313 319 334 336 338 342 363 365 388
b 177 255 257 258 259 273 275 277 278 280 284 296 298 300 303 309 311 313 319 334 336 338 342 363 365 388
b 178 257 258 259 273 275 277 278 280 282 284 296 298 300 303 309 311 313 319 334 336 338 342 363 365 388
b 179 257 259 273 275 277 278 280 282 284 296 298 300 303 305 309 311 313 319 334 336 338 342 363 365 388
b 180 259 273 275 277 278 280 282 284 296 298 300 303 305 307 309 311 313 319 334 336 338 342 363 365 388
b 181 273 275 277 278 280 282 284 296 298 300 303 305 307 309 311 313 319 321 334 336 338 342 363 365 388
b 182 275 277 278 280 282 284 296 298 299 300 303 305 307 309 311 313 319 321 334 336 338 342 363 365 388
b 183 277 278 280 282 284 296 298 299 300 301 303 305 307 309 311 313 319 321 334 336 338 342 363 365 388
b 184 278 280 282 284 296 298 299 300 301 302 303 305 307 309 311 313 319 321 334 336 338 342 363 365 388
b 185 280 282 284 296 298 299 300 301 302 303 305 307 309 311 313 319 321 328 334 336 338 342 363 365 388
b 186 282 284 296 298 299 300 301 302 303 305 306 307 309 311 313 319 321 328 334 336 338 342 363 365 388
b 187 284 296 298 299 300 301 302 303 305 306 307 309 311 313 319 321 328 334 336 338 342 344 363 365 388
b 188 284 298 299 300 301 302 303 305 306 307 309 311 313 319 321 322 328 334 336 338 342 344 363 365 388
b 189 284 299 300 301 302 303 305 306 307 309 311 313 319 321 322 324 328 334 336 338 342 344 363 365 388
b 190 284 299 301 302 303 305 306 307 309 311 313 319 321 322 324 328 334 336 338 342 344 347 363 365 388
b 191 284 301 302 303 305 306 307 309 311 313 319 321 322 324 325 328 334 336 338 342 344 347 363 365 388
b 192 284 302 303 305 306 307 309 311 313 319 321 322 324 325 326 328 334 336 338 342 344 347 363 365 388
b 193 284 303 305 306 307 309 311 313 319 321 322 324 325 326 327 328 334 336 338 342 344 347 363 365 388
b 194 284 305 306 307 309 311 313 319 321 322 324 325 326 327 328 330 334 336 338 342 344 347 363 365 388
b 195 284 305 307 309 311 313 319 321 322 324 325 326 327 328 330 334 336 338 342 344 347 363 365 367 388
b 196 284 305 307 309 311 313 321 322 324 325 326 327 328 330 334 336 338 342 344 345 347 363 365 367 388
b 197 284 305 307 309 311 313 322 324 325 326 327 328 330 334 336 338 342 344 345 346 347 363 365 367 388
b 198 284 305 307 309 311 313 324 325 326 327 328 330 334 336 338 342 344 345 346 347 348 363 365 367 388
b 199 284 305 307 309 311 313 325 326 327 328 330 334 336 338 342 344 345 346 347 348 349 363 365 367 388
b 200 284 305 307 309 311 313 326 327 328 330 334 336 338 342 344 345 346 347 348 349 350 363 365 367 388
b 201 284 305 307 309 311 313 327 328 330 334 336 338 342 344 345 346 347 348 349 350 363 365 367 388 390
b 202 284 305 307 309 311 313 327 328 330 334 336 338 344 345 346 347 348 349 350 363 365 367 368 388 390
b 203 284 305 307 309 311 313 327 328 330 334 336 338 345 346 347 348 349 350 363 365 367 368 370 388 390
b 204 284 305 307 309 311 313 327 328 330 334 336 338 345 347 348 349 350 363 365 367 368 370 371 388 390
b 205 284 305 307 309 311 313 327 328 330 334 336 338 345 348 349 350 363 365 367 368 370 371 372 388 390
b 206 284 305 307 309 311 313 327 328 330 334 336 338 345 349 350 363 365 367 368 370 371 372 388 390 391
b 207 284 305 307 309 311 313 327 328 330 334 336 338 345 349 350 363 365 368 370 371 372 388 390 391 395
b 208 284 305 307 309 311 313 327 328 329 330 334 336 338 345 349 350 363 365 368 370 372 388 390 391 395
b 209 284 307 309 311 313 327 328 329 330 334 336 338 345 349 350 352 363 365 368 370 372 388 390 391 395
b 210 284 307 309 311 313 327 329 330 334 336 338 345 349 350 352 353 363 365 368 370 372 388 390 391 395
b 211 284 307 309 311 313 327 330 334 336 338 345 349 350 352 353 363 365 368 370 372 388 390 391 393 395
b 212 284 307 309 311 313 327 330 334 336 338 349 350 352 353 363 365 368 370 372 388 389 390 391 393 395
b 213 284 307 309 311 313 327 330 334 336 338 349 350 352 353 363 368 370 372 388 389 390 391 393 395 416
b 214 284 307 309 311 313 327 330 334 336 338 349 350 352 353 363 370 372 388 389 390 391 393 395 416 418
b 215 284 307 309 311 313 327 330 334 336 338 349 350 352 353 363 372 388 389 390 391 393 395 416 418 441
b 216 393 416 417 418 441
b 217 284 307 309 311 313 327 330 334 336 337 338 349 350 352 353 363 372 388 389 390 391 395 416 418 441
b 218 284 307 309 311 327 330 334 336 337 338 349 350 352 353 361 363 372 388 389 390 391 395 416 418 441
b 219 284 307 309 311 327 330 334 336 338 349 350 352 353 361 362 363 372 388 389 390 391 395 416 418 441
b 220 284 307 309 311 327 330 334 336 349 350 352 353 361 362 363 372 385 388 389 390 391 395 416 418 441
b 221 284 307 309 311 327 330 334 336 349 350 352 353 362 363 372 385 386 388 389 390 391 395 416 418 441
b 222 284 307 309 311 327 330 334 336 349 350 352 353 363 372 385 386 387 388 389 390 391 395 416 418 441
b 223 284 307 309 311 327 330 334 336 349 350 352 353 372 385 386 387 388 389 390 391 395 409 416 418 441
b 224 284 307 309 311 327 330 334 336 349 350 352 353 372 386 387 388 389 390 391 395 409 410 416 418 441
b 225 284 307 309 311 327 330 334 336 349 350 352 353 372 387 388 389 390 391 395 409 410 411 416 418 441
b 226 284 307 309 311 327 330 334 336 349 350 352 353 372 388 389 390 391 395 409 410 411 413 416 418 441
b 227 284 307 309 311 327 330 334 336 349 350 352 353 372 388 390 391 395 409 410 411 413 416 418 436 441
b 228 284 307 309 311 327 330 334 336 349 350 352 353 372 390 391 395 409 410 411 413 414 416 418 436 441
b 229 284 307 309 311 327 330 334 336 349 350 352 353 372 391 395 409 410 411 413 414 416 418 436 439 441
b 230 284 307 309 311 327 330 334 336 349 350 352 353 372 395 409 410 411 413 414 416 418 434 436 439 441
b 231 284 307 309 311 327 330 334 336 349 350 352 353 372 395 409 411 413 414 416 418 434 435 436 439 441
b 232 284 307 309 311 327 330 334 336 349 350 352 353 372 395 409 413 414 416 418 434 435 436 437 439 441
b 233 284 307 309 311 327 330 334 336 349 350 352 353 372 395 409 414 416 418 434 435 436 437 439 441 462
b 234 284 307 309 311 327 330 334 336 349 350 352 353 372 395 409 416 418 434 435 436 437 439 441 462 464
b 235 284 307 309 311 327 330 334 336 349 350 352 353 372 395 409 418 434 435 436 437 439 441 462 464 487
b 236 439 462 463 464 487
b 237 284 307 309 311 327 330 334 336 349 350 352 353 372 395 409 418 434 435 436 437 441 459 462 464 487
b 238 284 307 309 311 327 330 334 336 349 350 352 353 372 395 409 418 434 436 437 441 459 460 462 464 487
b 239 284 307 309 311 327 330 334 336 349 350 352 353 372 395 409 418 434 437 441 457 459 460 462 464 487
b 240 284 307 309 311 327 330 334 336 349 350 352 353 372 395 418 434 437 441 457 458 459 460 462 464 487
b 241 284 307 309 311 327 330 334 336 349 350 352 353 372 395 418 437 441 457 458 459 460 462 464 485 487
b 242 284 307 309 311 327 330 334 336 349 350 352 353 372 395 418 441 457 458 459 460 462 464 482 485 487
b 243 284 307 309 311 327 330 334 336 349 350 352 353 372 395 418 441 457 459 460 462 464 482 485 487 505
b 244 284 307 309 311 327 330 334 336 349 350 352 353 372 395 418 441 459 460 462 464 482 483 485 487 505
b 245 284 307 309 311 327 330 334 336 349 350 352 353 372 395 418 441 460 462 464 482 483 484 485 487 505
b 246 284 307 309 311 327 330 334 336 349 350 352 353 372 395 418 441 462 464 482 483 484 485 486 487 505
b 247 284 307 309 311 327 330 334 336 349 350 352 353 372 395 418 441 464 482 483 484 485 486 487 505 506
b 248 284 307 309 311 327 330 334 336 349 350 352 353 372 395 418 441 464 483 484 485 486 487 505 506 507
b 249 284 307 309 311 327 330 334 336 349 350 352 353 372 395 418 441 464 484 485 486 487 505 506 507 508
b 250 284 307 309 311 327 330 334 336 349 350 352 353 372 395 418 441 464 485 486 487 505 506 507 508 509
b 251 284 307 309 311 327 330 334 336 349 350 352 353 372 395 418 441 464 486 487 505 506 507 508 509 510
b 252 284 307 309 311 327 330 334 336 349 350 352 353 372 395 418 441 464 487 505 506 507 508 509 510 531
b 253 284 307 309 311 327 330 334 336 349 350 352 353 372 395 418 441 464 487 505 506 508 509 510 531 556
b 254 284 307 309 311 327 330 334 336 349 350 352 353 372 395 418 441 464 487 508 509 510 531 533 556
b 255 508 531 532 533 556
b 256 505 506 531 555 556
b 257 505 506 530 531 555
b 258 457 481 482 505
b 259 437 460 461 462 485
b 260 409 433 434 457
b 261 416 439 440 441 464
b 262 414 437 438 439 462
b 263 391 414 415 416 439
b 264 388 411 412 413 436
b 265 370 393 394 395 418
b 266 368 391 392 393 416
b 267 345 368 369 370 393
b 268 342 365 366 367 390
b 269 319 342 343 344 367
b 270 299 322 323 324 347
b 271 296 319 320 321 344
b 272 280 303 304 305 328
b 273 273 296 297 298 321
b 274 259 282 283 284 307
b 275 257 280 281 282 305
b 276 255 278 279 280 303
b 277 252 275 276 277 300
b 278 250 273 274 275 298
b 279 286 309 310 311 334
b 280 263 286 287 288 311
b 281 261 284 285 286 309
b 282 240 263 264 288
b 283 238 261 262 263 286
b 284 236 259 260 261 284
b 285 232 255 256 257 280
b 286 227 250 251 252 275
b 287 215 238 239 240 263
b 288 213 236 237 238 261
b 289 211 234 235 236 259
b 290 209 232 233 234 257
b 291 188 211 212 213 236
b 292 184 207 208 209 232
b 293 182 205 206 207 230
b 294 165 188 189 190 213
b 295 159 182 183 184 207
b 296 167 190 191 192 215
b 297 144 167 168 192
b 298 142 165 166 167 190
b 299 119 142 143 144 167
b 300 186 209 210 211 234
b 301 161 184 185 186 209
b 302 138 161 162 163 186
b 303 136 159 160 161 184
b 304 117 140 141 142 165
b 305 113 136 137 138 161
b 306 90 113 114 115 138
b 307 67 90 91 92 115
b 308 94 117 118 119 142
b 309 69 92 93 94 117
b 310 44 67 68 69 92
b 311 21 44 69 94 96 119 144
b 312 21 44 69 71 94 96 119
b 313 71 94 95 96 119
b 314 21 44 46 69 71 94 96
b 315 21 46 71 72 96
b 316 21 22 46 71 72
b 317 22 46 47 71 72
b 318 21 44 45 46 69
b 319 46 69 70 71 94
b 320 96 119 120 144
b 321 17 19 21 42 44 67
b 322 19 42 43 44 67
b 323 19 20 21 44
b 324 17 18 19 42
b 325 109 132 134 155 159 178 180 182 202 205 227 228
b 326 109 132 134 155 157 159 180 182 205
b 327 134 157 158 159 182
b 328 132 155 156 157 180
b 329 157 180 181 182 205
b 330 109 132 133 134 157
b 331 155 178 180 202 203 205 227 228
b 332 180 203 204 205 228
b 333 155 178 179 180 203
b 334 202 225 226 227 250
b 335 217 242 267 290 292 313 315 338
b 336 267 290 291 292 315
b 337 217 242 265 267 290 313
b 338 217 241 242 265
b 339 242 265 266 267 290
b 340 265 289 290 313
b 341 290 313 314 315 338
b 342 244 267 268 269 292
b 343 221 244 245 246 269
b 344 152 153 175 178 198 202 221 223 225 246 248 271
b 345 152 153 175 178 198 200 202 223 225 248
b 346 200 223 224 225 248
b 347 152 153 175 177 178 200 202 225
b 348 152 175 176 177 200
b 349 177 200 201 202 225
b 350 175 198 199 200 223
b 351 223 246 247 248 271
b 352 198 221 222 223 246
b 353 219 242 243 244 267
b 354 196 219 220 221 244
b 355 77 78 100 103 123 125 127 148 150 173
b 356 100 123 124 125 148
b 357 77 78 100 102 103 125 127 150
b 358 102 125 126 127 150
b 359 77 100 101 102 125
b 360 125 148 149 150 173
b 361 30 53 54 55 78
b 362 98 121 122 123 146
b 363 75 98 99 100 123
b 364 52 75 76 77 100
b 365 5 28 29 30 53
b 366 73 97 98 121
b 367 50 73 74 75 98
b 368 27 50 51 52 75
b 369 3 27 49 50 73
b 370 3 26 27 49 50
b 371 284 307 309 311 327 330 334 336 349 350 352 353 372 395 418 441 464 487 510 512 531 533 537 556 560
b 372 284 307 309 311 327 330 334 336 349 350 352 353 372 395 418 441 464 466 487 491 512 514 537 556 560
b 373 284 307 309 311 327 330 334 336 349 350 352 353 372 395 418 441 466 491 514 516 537 541 556 560 564
b 374 487 510 512 533 535 537 556 560
b 375 510 533 535 556 558 560
b 376 535 558 559 560
b 377 533 556 557 558
b 378 510 533 534 535 558
b 379 512 535 536 537 560
b 380 487 510 511 512 535
b 381 284 307 309 311 327 330 334 336 349 350 352 353 372 375 395 418 441 466 491 516 541 564
b 382 284 307 309 311 330 334 336 349 350 352 353 372 375 395 399 418 422 441 445 466 468 491 516 541 564
b 383 284 307 309 311 330 334 336 352 353 375 399 422 441 445 466 468 491 516 541 564
b 384 284 307 309 311 330 334 336 352 353 355 375 380 399 405 407 422 430 432 445 468 491 516 541 564
b 385 330 352 353 355 375 380 399 405 407 422 430 432 445 447 468 472 491 497 516 522 541 545 564 568
b 386 330 352 353 355 375 380 399 405 407 422 424 430 432 447 472 497 522 545 568
b 387 330 352 353 355 375 378 380 399 405 407 424 430 432 447 472 497 522 545 568
b 388 352 353 355 375 378 380 399 402 405 407 424 425 430 432 447 472 497 522 545 568
b 389 352 353 375 378 399 400 402 424 425
b 390 352 353 375 377 378 400 402 425
b 391 377 400 401 402 425
b 392 352 375 376 377 400
b 393 355 378 380 402 405 407 424 425 430 432 447 450 472 474 497 522 545 568
b 394 355 378 380 402 405 407 425 427 430 432 450 474 497 522 545 568
b 395 355 378 380 402 405 407 427 428 430 432 450 474 497 522 545 568
b 396 405 407 427 428 430 432 450 474 497 499 522 545 568
b 397 474 497 498 499 522
b 398 405 407 427 428 430 432 450 453 474 499 522 545 568
b 399 407 427 428 430 432 450 453 474 477 499 500 522 545 568
b 400 407 430 432 453 477 499 500 502 503 522 528 545 568
b 401 477 499 500 502 503 522 528 545 547 568 572
b 402 522 545 547 568 570 572
b 403 545 568 569 570
b 404 547 570 571 572
b 405 522 545 546 547 570
b 406 477 499 500 502 503 522 524 528 547 572
b 407 477 500 502 503 524 525 528 547 572
b 408 477 500 501 502 525
b 409 502 503 524 525 528 547 549 572
b 410 502 503 525 527 528 549 572
b 411 502 525 527 528 549 550 572
b 412 502 525 526 527 550
b 413 527 528 549 550 572 574
b 414 549 572 573 574
b 415 527 528 550 551 574
b 416 524 547 548 549 572
b 417 499 522 523 524 547
b 418 407 430 432 453 477 478 502 503 528
b 419 407 430 432 453 455 478 503 528
b 420 407 430 431 432 455
b 421 432 455 478 480 503 528
b 422 432 455 456 480
b 423 480 503 504 528
b 424 455 478 479 480 503
b 425 430 453 454 455 478
b 426 427 428 450 452 453 474 477 499 500
b 427 427 450 452 474 475 477 499 500
b 428 427 450 451 452 475
b 429 452 475 476 477 500
b 430 405 428 429 430 453
b 431 355 378 380 402 403 405 427 428
b 432 355 378 379 380 403
b 433 380 403 404 405 428
b 434 402 425 426 427 450
b 435 424 425 447 449 450 472 474 497
b 436 449 472 473 474 497
b 437 424 447 448 449 472
b 438 330 353 354 355 378
b 439 399 422 423 424 447
b 440 422 445 447 468 472 491 495 497 516 518 522 541 545 564 568
b 441 472 495 497 518 520 522 541 545 564 568
b 442 497 520 521 522 545
b 443 472 495 496 497 520
b 444 495 518 520 541 543 545 564 568
b 445 518 541 543 564 566 568
b 446 518 541 542 543 566
b 447 541 564 565 566
b 448 543 566 567 568
b 449 520 543 544 545 568
b 450 495 518 519 520 543
b 451 422 445 447 468 470 472 491 495 516 518 541
b 452 445 468 470 491 493 495 516 518 541
b 453 493 516 517 518 541
b 454 468 491 492 493 516
b 455 470 493 494 495 518
b 456 445 468 469 470 493
b 457 447 470 471 472 495
b 458 422 445 446 447 470
b 459 284 307 309 311 330 334 336 355 357 380 405 407 430 432
b 460 284 307 309 330 332 334 355 357 380
b 461 284 307 308 309 332
b 462 332 355 356 357 380
b 463 307 330 331 332 355
b 464 309 332 333 334 357
b 465 311 334 336 357 380 382 405 407 430 432
b 466 382 405 406 407 430
b 467 357 380 381 382 405
b 468 311 334 336 357 359 382 407 432
b 469 336 359 382 384 407 432
b 470 384 407 408 432
b 471 359 382 383 384 407
b 472 336 359 360 384
b 473 311 334 335 336 359
b 474 334 357 358 359 382
b 475 349 350 372 375 395 399 418 420 422 441 445 466 468 491
b 476 349 350 372 375 395 397 399 420 422 445
b 477 397 420 421 422 445
b 478 372 395 396 397 420
b 479 349 350 372 374 375 397 399 422
b 480 374 397 398 399 422
b 481 349 372 373 374 397
b 482 395 418 420 441 443 445 466 468 491
b 483 420 443 444 445 468
b 484 418 441 442 443 466
b 485 395 418 419 420 443
b 486 443 466 467 468 491
b 487 327 350 351 352 375
b 488 441 464 466 487 489 491 512 514 537
b 489 441 464 465 466 489
b 490 464 487 488 489 512
b 491 466 489 490 491 514
b 492 489 512 513 514 537
b 493 491 514 516 537 539 541 560 564
b 494 514 537 539 560 562 564
b 495 514 537 538 539 562
b 496 537 560 561 562
b 497 539 562 563 564
b 498 491 514 515 516 539
b 499 516 539 540 541 564
b 500 552 575 576
b 501 529 553 554
b 502 23 24 48
1 2
2 4
3 502
3 5
4 370
5 317
6 501
6 8
7 500
7 9
8 257
9 415
10 11
11 369
11 12
12 368
12 13
13 367
13 14
14 366
14 15
15 365
15 16
16 364
16 17
17 363
17 18
18 362
18 19
19 361
19 20
20 355
20 21
21 23
21 22
23 31
23 24
24 26
24 25
24 27
27 30
27 29
27 28
31 42
31 32
32 33
32 34
32 35
35 37
35 36
35 38
38 41
38 39
38 40
42 57
42 43
43 44
43 45
45 54
45 46
46 47
46 48
46 49
49 53
49 51
49 50
49 52
54 55
54 56
57 59
57 58
59 61
59 60
61 63
61 62
63 354
63 64
64 353
64 65
65 344
65 66
66 343
66 67
67 342
67 68
68 335
68 69
69 82
69 70
70 71
71 72
71 77
72 74
72 75
72 76
72 73
77 80
77 81
77 78
77 79
82 84
82 83
84 86
84 85
86 334
86 87
87 98
87 88
88 97
88 89
88 96
89 90
89 94
89 95
90 91
90 92
90 93
98 325
98 99
99 107
99 102
99 101
99 100
102 105
102 106
102 104
102 103
107 118
107 108
108 110
108 111
108 109
111 113
111 117
111 112
113 116
113 115
113 114
118 321
118 119
119 311
119 120
120 310
120 121
121 309
121 122
122 123
122 308
123 307
123 124
124 306
124 125
125 126
126 127
127 128
127 129
129 305
129 130
130 304
130 131
131 303
131 132
132 302
132 133
133 134
133 301
134 136
134 135
136 138
136 137
138 300
138 139
139 299
139 140
140 298
140 141
141 297
141 142
142 296
142 143
143 145
143 144
145 295
145 146
146 294
146 147
147 293
147 148
148 292
148 149
149 150
149 151
151 153
151 152
153 291
153 154
154 155
155 290
155 156
156 289
156 157
157 288
157 158
158 287
158 159
159 160
160 286
160 161
161 162
162 285
162 163
163 284
163 164
164 283
164 165
165 282
165 166
166 281
166 167
167 280
167 168
168 279
168 169
169 171
169 170
171 172
172 173
173 278
173 174
174 175
175 277
175 176
176 177
177 276
177 178
178 179
179 275
179 180
180 274
180 181
181 273
181 182
182 183
183 184
184 185
185 272
185 186
186 187
187 271
187 188
188 189
189 190
190 270
190 191
191 192
192 193
193 194
194 195
195 269
195 196
196 197
197 198
198 199
199 200
200 201
201 268
201 202
202 203
203 204
204 205
205 206
206 207
207 208
208 209
209 210
210 211
211 267
211 212
212 213
213 266
213 214
214 265
214 215
215 217
215 216
217 218
218 219
219 220
220 221
221 222
222 223
223 224
224 225
225 226
226 227
227 264
227 228
228 229
229 263
229 230
230 231
231 232
232 233
233 262
233 234
234 261
234 235
235 237
235 236
237 238
238 239
239 260
239 240
240 241
241 259
241 242
242 243
243 258
243 244
244 245
245 246
246 247
247 248
248 249
249 250
250 251
251 252
252 253
253 256
253 254
254 371
254 255
256 257
311 312
311 320
312 313
312 314
314 315
314 318
314 319
315 316
316 317
321 322
321 323
321 324
325 331
325 326
326 327
326 328
326 329
326 330
331 332
331 333
335 336
335 337
335 341
337 338
337 339
337 340
344 352
344 351
344 345
345 346
345 347
345 350
347 349
347 348
355 356
355 360
355 357
357 359
357 358
369 370
371 374
371 372
372 488
372 373
373 381
373 493
374 379
374 380
374 375
375 377
375 378
375 376
381 382
381 487
382 475
382 384
382 383
384 459
384 385
385 386
385 440
386 439
386 387
387 438
387 388
388 389
388 393
389 390
390 392
390 391
393 435
393 394
394 434
394 395
395 431
395 396
396 397
396 398
398 430
398 399
399 426
399 400
400 418
400 401
401 402
401 406
402 403
402 404
402 405
406 417
406 407
407 408
407 409
409 416
409 410
410 411
411 412
411 413
413 415
413 414
418 419
419 420
419 425
419 421
421 422
421 423
421 424
426 427
427 428
427 429
431 432
431 433
435 436
435 437
440 451
440 441
441 442
441 443
441 444
444 449
444 450
444 445
445 447
445 448
445 446
451 457
451 458
451 452
452 453
452 454
452 455
452 456
459 460
459 465
460 461
460 462
460 463
460 464
465 466
465 467
465 468
468 474
468 469
468 473
469 472
469 470
469 471
475 476
475 482
476 477
476 478
476 479
479 480
479 481
482 484
482 485
482 486
482 483
488 489
488 490
488 491
488 492
493 499
493 498
493 494
494 495
494 496
494 497
